p cnf 70 446
e 8 9 10 11 12 13 14 15 16 17 18 19 20 21 22 23 24 25 26 27 28 29 30 31 32 33 34 35 36 37 38 39 40 41 42 43 44 45 46 47 48 49 50 51 52 53 54 55 56 57 58 59 60 0
a 1 2 3 4 5 6 7 0
e 61 62 63 64 65 66 67 68 69 70 0
1 2 3 4 5 6 7 -61 0
-1 2 3 4 5 6 7 -61 0
1 -2 3 4 5 6 7 -61 0
-1 -2 3 4 5 6 7 -61 0
1 2 -3 4 5 6 7 -61 0
-1 2 -3 4 5 6 7 -61 0
1 -2 -3 4 5 6 7 -61 0
-1 -2 -3 4 5 6 7 61 0
1 2 3 -4 5 6 7 -61 0
-1 2 3 -4 5 6 7 -61 0
1 -2 3 -4 5 6 7 -61 0
-1 -2 3 -4 5 6 7 -61 0
1 2 -3 -4 5 6 7 -61 0
-1 2 -3 -4 5 6 7 -61 0
1 -2 -3 -4 5 6 7 -61 0
-1 -2 -3 -4 5 6 7 61 0
1 2 3 4 -5 6 7 -61 0
-1 2 3 4 -5 6 7 -61 0
1 -2 3 4 -5 6 7 -61 0
-1 -2 3 4 -5 6 7 -61 0
1 2 -3 4 -5 6 7 -61 0
-1 2 -3 4 -5 6 7 -61 0
1 -2 -3 4 -5 6 7 -61 0
-1 -2 -3 4 -5 6 7 61 0
1 2 3 -4 -5 6 7 61 0
-1 2 3 -4 -5 6 7 61 0
1 -2 3 -4 -5 6 7 61 0
-1 -2 3 -4 -5 6 7 61 0
1 2 -3 -4 -5 6 7 61 0
-1 2 -3 -4 -5 6 7 61 0
1 -2 -3 -4 -5 6 7 61 0
-1 -2 -3 -4 -5 6 7 61 0
1 2 3 4 5 -6 7 -61 0
-1 2 3 4 5 -6 7 -61 0
1 -2 3 4 5 -6 7 -61 0
-1 -2 3 4 5 -6 7 -61 0
1 2 -3 4 5 -6 7 -61 0
-1 2 -3 4 5 -6 7 -61 0
1 -2 -3 4 5 -6 7 -61 0
-1 -2 -3 4 5 -6 7 61 0
1 2 3 -4 5 -6 7 -61 0
-1 2 3 -4 5 -6 7 -61 0
1 -2 3 -4 5 -6 7 -61 0
-1 -2 3 -4 5 -6 7 -61 0
1 2 -3 -4 5 -6 7 -61 0
-1 2 -3 -4 5 -6 7 -61 0
1 -2 -3 -4 5 -6 7 -61 0
-1 -2 -3 -4 5 -6 7 61 0
1 2 3 4 -5 -6 7 -61 0
-1 2 3 4 -5 -6 7 -61 0
1 -2 3 4 -5 -6 7 -61 0
-1 -2 3 4 -5 -6 7 -61 0
1 2 -3 4 -5 -6 7 -61 0
-1 2 -3 4 -5 -6 7 -61 0
1 -2 -3 4 -5 -6 7 -61 0
-1 -2 -3 4 -5 -6 7 61 0
1 2 3 -4 -5 -6 7 61 0
-1 2 3 -4 -5 -6 7 61 0
1 -2 3 -4 -5 -6 7 61 0
-1 -2 3 -4 -5 -6 7 61 0
1 2 -3 -4 -5 -6 7 61 0
-1 2 -3 -4 -5 -6 7 61 0
1 -2 -3 -4 -5 -6 7 61 0
-1 -2 -3 -4 -5 -6 7 61 0
1 2 3 4 5 6 -7 -61 0
-1 2 3 4 5 6 -7 -61 0
1 -2 3 4 5 6 -7 -61 0
-1 -2 3 4 5 6 -7 -61 0
1 2 -3 4 5 6 -7 -61 0
-1 2 -3 4 5 6 -7 -61 0
1 -2 -3 4 5 6 -7 61 0
-1 -2 -3 4 5 6 -7 61 0
1 2 3 -4 5 6 -7 -61 0
-1 2 3 -4 5 6 -7 -61 0
1 -2 3 -4 5 6 -7 -61 0
-1 -2 3 -4 5 6 -7 -61 0
1 2 -3 -4 5 6 -7 -61 0
-1 2 -3 -4 5 6 -7 -61 0
1 -2 -3 -4 5 6 -7 61 0
-1 -2 -3 -4 5 6 -7 61 0
1 2 3 4 -5 6 -7 -61 0
-1 2 3 4 -5 6 -7 -61 0
1 -2 3 4 -5 6 -7 -61 0
-1 -2 3 4 -5 6 -7 -61 0
1 2 -3 4 -5 6 -7 -61 0
-1 2 -3 4 -5 6 -7 -61 0
1 -2 -3 4 -5 6 -7 61 0
-1 -2 -3 4 -5 6 -7 61 0
1 2 3 -4 -5 6 -7 61 0
-1 2 3 -4 -5 6 -7 61 0
1 -2 3 -4 -5 6 -7 61 0
-1 -2 3 -4 -5 6 -7 61 0
1 2 -3 -4 -5 6 -7 61 0
-1 2 -3 -4 -5 6 -7 61 0
1 -2 -3 -4 -5 6 -7 61 0
-1 -2 -3 -4 -5 6 -7 61 0
1 2 3 4 5 -6 -7 61 0
-1 2 3 4 5 -6 -7 61 0
1 -2 3 4 5 -6 -7 61 0
-1 -2 3 4 5 -6 -7 61 0
1 2 -3 4 5 -6 -7 61 0
-1 2 -3 4 5 -6 -7 61 0
1 -2 -3 4 5 -6 -7 61 0
-1 -2 -3 4 5 -6 -7 61 0
1 2 3 -4 5 -6 -7 61 0
-1 2 3 -4 5 -6 -7 61 0
1 -2 3 -4 5 -6 -7 61 0
-1 -2 3 -4 5 -6 -7 61 0
1 2 -3 -4 5 -6 -7 61 0
-1 2 -3 -4 5 -6 -7 61 0
1 -2 -3 -4 5 -6 -7 61 0
-1 -2 -3 -4 5 -6 -7 61 0
1 2 3 4 -5 -6 -7 61 0
-1 2 3 4 -5 -6 -7 61 0
1 -2 3 4 -5 -6 -7 61 0
-1 -2 3 4 -5 -6 -7 61 0
1 2 -3 4 -5 -6 -7 61 0
-1 2 -3 4 -5 -6 -7 61 0
1 -2 -3 4 -5 -6 -7 61 0
-1 -2 -3 4 -5 -6 -7 61 0
1 2 3 -4 -5 -6 -7 61 0
-1 2 3 -4 -5 -6 -7 61 0
1 -2 3 -4 -5 -6 -7 61 0
-1 -2 3 -4 -5 -6 -7 61 0
1 2 -3 -4 -5 -6 -7 61 0
-1 2 -3 -4 -5 -6 -7 61 0
1 -2 -3 -4 -5 -6 -7 61 0
-1 -2 -3 -4 -5 -6 -7 61 0
40 41 42 43 44 45 0
40 41 42 46 47 48 0
40 41 42 49 50 51 0
40 41 42 52 53 54 0
40 41 42 55 56 57 0
40 41 42 58 59 60 0
43 44 45 46 47 48 0
43 44 45 49 50 51 0
43 44 45 52 53 54 0
43 44 45 55 56 57 0
43 44 45 58 59 60 0
46 47 48 49 50 51 0
46 47 48 52 53 54 0
46 47 48 55 56 57 0
46 47 48 58 59 60 0
49 50 51 52 53 54 0
49 50 51 55 56 57 0
49 50 51 58 59 60 0
52 53 54 55 56 57 0
52 53 54 58 59 60 0
55 56 57 58 59 60 0
-40 41 42 -43 44 45 0
-40 41 42 -46 47 48 0
-40 41 42 -49 50 51 0
-40 41 42 -52 53 54 0
-40 41 42 -55 56 57 0
-40 41 42 -58 59 60 0
-43 44 45 -46 47 48 0
-43 44 45 -49 50 51 0
-43 44 45 -52 53 54 0
-43 44 45 -55 56 57 0
-43 44 45 -58 59 60 0
-46 47 48 -49 50 51 0
-46 47 48 -52 53 54 0
-46 47 48 -55 56 57 0
-46 47 48 -58 59 60 0
-49 50 51 -52 53 54 0
-49 50 51 -55 56 57 0
-49 50 51 -58 59 60 0
-52 53 54 -55 56 57 0
-52 53 54 -58 59 60 0
-55 56 57 -58 59 60 0
40 -41 42 43 -44 45 0
40 -41 42 46 -47 48 0
40 -41 42 49 -50 51 0
40 -41 42 52 -53 54 0
40 -41 42 55 -56 57 0
40 -41 42 58 -59 60 0
43 -44 45 46 -47 48 0
43 -44 45 49 -50 51 0
43 -44 45 52 -53 54 0
43 -44 45 55 -56 57 0
43 -44 45 58 -59 60 0
46 -47 48 49 -50 51 0
46 -47 48 52 -53 54 0
46 -47 48 55 -56 57 0
46 -47 48 58 -59 60 0
49 -50 51 52 -53 54 0
49 -50 51 55 -56 57 0
49 -50 51 58 -59 60 0
52 -53 54 55 -56 57 0
52 -53 54 58 -59 60 0
55 -56 57 58 -59 60 0
-40 -41 42 -43 -44 45 0
-40 -41 42 -46 -47 48 0
-40 -41 42 -49 -50 51 0
-40 -41 42 -52 -53 54 0
-40 -41 42 -55 -56 57 0
-40 -41 42 -58 -59 60 0
-43 -44 45 -46 -47 48 0
-43 -44 45 -49 -50 51 0
-43 -44 45 -52 -53 54 0
-43 -44 45 -55 -56 57 0
-43 -44 45 -58 -59 60 0
-46 -47 48 -49 -50 51 0
-46 -47 48 -52 -53 54 0
-46 -47 48 -55 -56 57 0
-46 -47 48 -58 -59 60 0
-49 -50 51 -52 -53 54 0
-49 -50 51 -55 -56 57 0
-49 -50 51 -58 -59 60 0
-52 -53 54 -55 -56 57 0
-52 -53 54 -58 -59 60 0
-55 -56 57 -58 -59 60 0
40 41 -42 43 44 -45 0
40 41 -42 46 47 -48 0
40 41 -42 49 50 -51 0
40 41 -42 52 53 -54 0
40 41 -42 55 56 -57 0
40 41 -42 58 59 -60 0
43 44 -45 46 47 -48 0
43 44 -45 49 50 -51 0
43 44 -45 52 53 -54 0
43 44 -45 55 56 -57 0
43 44 -45 58 59 -60 0
46 47 -48 49 50 -51 0
46 47 -48 52 53 -54 0
46 47 -48 55 56 -57 0
46 47 -48 58 59 -60 0
49 50 -51 52 53 -54 0
49 50 -51 55 56 -57 0
49 50 -51 58 59 -60 0
52 53 -54 55 56 -57 0
52 53 -54 58 59 -60 0
55 56 -57 58 59 -60 0
-40 41 -42 -43 44 -45 0
-40 41 -42 -46 47 -48 0
-40 41 -42 -49 50 -51 0
-40 41 -42 -52 53 -54 0
-40 41 -42 -55 56 -57 0
-40 41 -42 -58 59 -60 0
-43 44 -45 -46 47 -48 0
-43 44 -45 -49 50 -51 0
-43 44 -45 -52 53 -54 0
-43 44 -45 -55 56 -57 0
-43 44 -45 -58 59 -60 0
-46 47 -48 -49 50 -51 0
-46 47 -48 -52 53 -54 0
-46 47 -48 -55 56 -57 0
-46 47 -48 -58 59 -60 0
-49 50 -51 -52 53 -54 0
-49 50 -51 -55 56 -57 0
-49 50 -51 -58 59 -60 0
-52 53 -54 -55 56 -57 0
-52 53 -54 -58 59 -60 0
-55 56 -57 -58 59 -60 0
40 -41 -42 43 -44 -45 0
40 -41 -42 46 -47 -48 0
40 -41 -42 49 -50 -51 0
40 -41 -42 52 -53 -54 0
40 -41 -42 55 -56 -57 0
40 -41 -42 58 -59 -60 0
43 -44 -45 46 -47 -48 0
43 -44 -45 49 -50 -51 0
43 -44 -45 52 -53 -54 0
43 -44 -45 55 -56 -57 0
43 -44 -45 58 -59 -60 0
46 -47 -48 49 -50 -51 0
46 -47 -48 52 -53 -54 0
46 -47 -48 55 -56 -57 0
46 -47 -48 58 -59 -60 0
49 -50 -51 52 -53 -54 0
49 -50 -51 55 -56 -57 0
49 -50 -51 58 -59 -60 0
52 -53 -54 55 -56 -57 0
52 -53 -54 58 -59 -60 0
55 -56 -57 58 -59 -60 0
-40 -41 -42 0
-43 -44 -45 0
-46 -47 -48 0
-49 -50 -51 0
-52 -53 -54 0
-55 -56 -57 0
-58 -59 -60 0
40 41 42 1 -62 0
40 41 42 -1 62 0
-40 41 42 2 -62 0
-40 41 42 -2 62 0
40 -41 42 3 -62 0
40 -41 42 -3 62 0
-40 -41 42 4 -62 0
-40 -41 42 -4 62 0
40 41 -42 5 -62 0
40 41 -42 -5 62 0
-40 41 -42 6 -62 0
-40 41 -42 -6 62 0
40 -41 -42 7 -62 0
40 -41 -42 -7 62 0
43 44 45 1 -63 0
43 44 45 -1 63 0
-43 44 45 2 -63 0
-43 44 45 -2 63 0
43 -44 45 3 -63 0
43 -44 45 -3 63 0
-43 -44 45 4 -63 0
-43 -44 45 -4 63 0
43 44 -45 5 -63 0
43 44 -45 -5 63 0
-43 44 -45 6 -63 0
-43 44 -45 -6 63 0
43 -44 -45 7 -63 0
43 -44 -45 -7 63 0
46 47 48 1 -64 0
46 47 48 -1 64 0
-46 47 48 2 -64 0
-46 47 48 -2 64 0
46 -47 48 3 -64 0
46 -47 48 -3 64 0
-46 -47 48 4 -64 0
-46 -47 48 -4 64 0
46 47 -48 5 -64 0
46 47 -48 -5 64 0
-46 47 -48 6 -64 0
-46 47 -48 -6 64 0
46 -47 -48 7 -64 0
46 -47 -48 -7 64 0
49 50 51 1 -65 0
49 50 51 -1 65 0
-49 50 51 2 -65 0
-49 50 51 -2 65 0
49 -50 51 3 -65 0
49 -50 51 -3 65 0
-49 -50 51 4 -65 0
-49 -50 51 -4 65 0
49 50 -51 5 -65 0
49 50 -51 -5 65 0
-49 50 -51 6 -65 0
-49 50 -51 -6 65 0
49 -50 -51 7 -65 0
49 -50 -51 -7 65 0
52 53 54 1 -66 0
52 53 54 -1 66 0
-52 53 54 2 -66 0
-52 53 54 -2 66 0
52 -53 54 3 -66 0
52 -53 54 -3 66 0
-52 -53 54 4 -66 0
-52 -53 54 -4 66 0
52 53 -54 5 -66 0
52 53 -54 -5 66 0
-52 53 -54 6 -66 0
-52 53 -54 -6 66 0
52 -53 -54 7 -66 0
52 -53 -54 -7 66 0
55 56 57 1 -67 0
55 56 57 -1 67 0
-55 56 57 2 -67 0
-55 56 57 -2 67 0
55 -56 57 3 -67 0
55 -56 57 -3 67 0
-55 -56 57 4 -67 0
-55 -56 57 -4 67 0
55 56 -57 5 -67 0
55 56 -57 -5 67 0
-55 56 -57 6 -67 0
-55 56 -57 -6 67 0
55 -56 -57 7 -67 0
55 -56 -57 -7 67 0
58 59 60 1 -68 0
58 59 60 -1 68 0
-58 59 60 2 -68 0
-58 59 60 -2 68 0
58 -59 60 3 -68 0
58 -59 60 -3 68 0
-58 -59 60 4 -68 0
-58 -59 60 -4 68 0
58 59 -60 5 -68 0
58 59 -60 -5 68 0
-58 59 -60 6 -68 0
-58 59 -60 -6 68 0
58 -59 -60 7 -68 0
58 -59 -60 -7 68 0
8 62 63 64 65 -69 0
-8 62 63 64 65 69 0
9 -62 63 64 65 -69 0
-9 -62 63 64 65 69 0
10 62 -63 64 65 -69 0
-10 62 -63 64 65 69 0
11 -62 -63 64 65 -69 0
-11 -62 -63 64 65 69 0
12 62 63 -64 65 -69 0
-12 62 63 -64 65 69 0
13 -62 63 -64 65 -69 0
-13 -62 63 -64 65 69 0
14 62 -63 -64 65 -69 0
-14 62 -63 -64 65 69 0
15 -62 -63 -64 65 -69 0
-15 -62 -63 -64 65 69 0
16 62 63 64 -65 -69 0
-16 62 63 64 -65 69 0
17 -62 63 64 -65 -69 0
-17 -62 63 64 -65 69 0
18 62 -63 64 -65 -69 0
-18 62 -63 64 -65 69 0
19 -62 -63 64 -65 -69 0
-19 -62 -63 64 -65 69 0
20 62 63 -64 -65 -69 0
-20 62 63 -64 -65 69 0
21 -62 63 -64 -65 -69 0
-21 -62 63 -64 -65 69 0
22 62 -63 -64 -65 -69 0
-22 62 -63 -64 -65 69 0
23 -62 -63 -64 -65 -69 0
-23 -62 -63 -64 -65 69 0
24 66 67 68 69 -70 0
-24 66 67 68 69 70 0
25 66 67 68 -69 -70 0
-25 66 67 68 -69 70 0
26 -66 67 68 69 -70 0
-26 -66 67 68 69 70 0
27 -66 67 68 -69 -70 0
-27 -66 67 68 -69 70 0
28 66 -67 68 69 -70 0
-28 66 -67 68 69 70 0
29 66 -67 68 -69 -70 0
-29 66 -67 68 -69 70 0
30 -66 -67 68 69 -70 0
-30 -66 -67 68 69 70 0
31 -66 -67 68 -69 -70 0
-31 -66 -67 68 -69 70 0
32 66 67 -68 69 -70 0
-32 66 67 -68 69 70 0
33 66 67 -68 -69 -70 0
-33 66 67 -68 -69 70 0
34 -66 67 -68 69 -70 0
-34 -66 67 -68 69 70 0
35 -66 67 -68 -69 -70 0
-35 -66 67 -68 -69 70 0
36 66 -67 -68 69 -70 0
-36 66 -67 -68 69 70 0
37 66 -67 -68 -69 -70 0
-37 66 -67 -68 -69 70 0
38 -66 -67 -68 69 -70 0
-38 -66 -67 -68 69 70 0
39 -66 -67 -68 -69 -70 0
-39 -66 -67 -68 -69 70 0
-61 70 0
61 -70 0
